53
Oleic acid preprocessed
O     -1.13554   -0.14289   -0.71235
C      0.00000    0.00000    0.00000
C     -0.27780    0.44234    1.41127
O      1.08365   -0.22049   -0.51164
C      1.00803    0.58463    2.22361
C      0.71433    1.03548    3.65502
C      4.32525    1.86650   10.06891
C      3.97150    2.45728    8.91618
C      3.54742    0.86595   10.87665
C      2.70007    2.28100    8.13475
C      2.99111    1.77756    6.71795
C      1.70522    1.63758    5.89999
C      2.00017    1.17312    4.47214
C      0.32171   -0.54769   17.59215
C      1.07906    0.47531   16.74559
C      0.00000    0.00000   18.97352
C      1.39644   -0.07848   15.35521
C      2.14843    0.94712   14.50507
C      2.46365    0.39448   13.11355
C      3.21615    1.42149   12.26464
H      2.60795    2.32943   12.16381
H     -0.80082    1.40421    1.37092
H     -0.93216   -0.30104    1.87989
H      1.54263   -0.37340    2.23902
H      1.67373    1.30846    1.73690
H      0.18703    1.99702    3.63525
H      0.04807    0.31113    4.13906
H      5.29937    2.12808   10.48337
H      4.67838    3.16636    8.48430
H      2.62506    0.56125   10.37407
H      4.15894   -0.03888   10.97888
H      2.00550    1.59661    8.62988
H      2.19575    3.25350    8.08148
H      3.67155    2.47271    6.20962
H      3.50173    0.80739    6.76661
H      1.03509    0.92057    6.38960
H      1.18231    2.60129    5.87033
H      2.52363    0.20971    4.49934
H      2.67003    1.89141    3.98382
H     -0.61184   -0.82800   17.09053
H      0.92014   -1.46010   17.69748
H      2.01134    0.75336   17.25222
H      0.47907    1.38847   16.64932
H     -0.54253   -0.74756   19.56062
H      0.91487    0.25925   19.51577
H     -0.62467    0.89628   18.90454
H      0.46423   -0.36051   14.85084
H      2.00019   -0.98905   15.45196
H      3.08143    1.22761   15.00896
H      1.54564    1.85850   14.41039
H      1.53109    0.11371   12.60925
H      3.06734   -0.51624   13.20883
H      4.14118    1.71117   12.77947
